proyfinal/src/viki/013/experimentInOfficeAgust.take6.output/5ea44c27-f8d2-4178-b8a2-5a71e6f496f4.als.out
Reading from standard input... Use '--help' for help.
============================[ Problem Statistics ]=============================
|                                                                             |
|  Number of variables:         87638                                         |
|  Number of clauses:          161767                                         |
|  Parse time:                   0.03 s                                       |
|                                                                             |
============================[ Search Statistics ]==============================
| Conflicts |          ORIGINAL         |          LEARNT          | Progress |
|           |    Vars  Clauses Literals |    Limit  Clauses Lit/Cl |          |
===============================================================================
|       100 |   63296   108450   270961 |    39765      100     10 | 27.776 % |
|       250 |   63296   108450   270961 |    43741      250     12 | 27.776 % |
|       475 |   63296   108450   270961 |    48115      475     18 | 27.776 % |
|       812 |   63213   108116   270170 |    52927      808     48 | 27.870 % |
|      1318 |   63213   108116   270170 |    58219     1314     52 | 27.870 % |
|      2077 |   63213   108116   270170 |    64041     2073     56 | 27.870 % |
|      3216 |   63159   107898   269661 |    70446     3209     71 | 27.932 % |
|      4924 |   63158   107854   269571 |    77490     4916     79 | 27.933 % |
|      7486 |   63121   107708   269221 |    85239     7476     90 | 27.975 % |
|     11330 |   63058   107477   268609 |    93763    11197     92 | 28.047 % |
|     17096 |   62987   107115   267809 |   103140    15422    100 | 28.128 % |
===============================================================================
restarts              : 63
conflicts             : 17589          (6966 /sec)
decisions             : 73906          (0.00 % random) (29268 /sec)
propagations          : 22915118       (9074784 /sec)
conflict literals     : 1759481        (50.52 % deleted)
Memory used           : 33.97 MB
CPU time              : 2.52514 s

UNSATISFIABLE
